p cnf 1012 1216
c ind 743 744 745 758 765 791 852 853 866 873 0
c ind 877 879 882 898 900 903 915 916 935 937 0
c ind 941 952 953 957 958 959 963 965 997 979 0
c ind 988 1002 983 993 1010 736 851 996 766 978 0
c ind 987 1001 982 992 778 1009 737 738 850 741 0
c ind 742 849 947 948 946 945 944 966 995 977 0
c ind 986 1000 981 991 1008 956 994 976 985 999 0
c ind 980 990 1007 954 955 971 975 1005 943 942 0
c ind 964 951 940 962 960 961 949 950 939 938 0
c ind 931 973 1003 972 974 1004 984 998 989 1006 0
c ind 739 740 968 936 934 932 933 930 923 922 0
c ind 929 969 928 927 926 925 924 921 920 970 0
c ind 919 918 917 735 910 909 907 908 906 905 0
c ind 967 911 912 904 902 913 901 914 899 897 0
c ind 895 896 894 893 892 891 890 889 888 886 0
c ind 887 885 884 883 881 880 878 876 874 875 0
c ind 856 872 867 871 868 869 863 870 865 861 0
c ind 862 864 860 855 859 857 858 854 848 841 0
c ind 833 847 846 845 844 827 826 825 843 824 0
c ind 842 823 822 821 840 839 838 837 836 748 0
c ind 835 834 832 831 830 829 828 820 813 805 0
c ind 819 818 817 816 799 798 797 815 796 814 0
c ind 795 794 793 812 811 810 809 808 807 806 0
c ind 804 803 802 801 800 792 790 788 789 779 0
c ind 780 787 786 785 784 783 781 782 775 774 0
c ind 776 777 773 772 771 770 768 769 767 764 0
c ind 763 759 760 761 762 755 757 754 753 756 0
c ind 747 752 746 751 749 750 1 0
c ret 590 591 592 593 594 595 596 597 598 599 0
c ret 600 601 602 603 604 605 606 607 608 609 0
c ret 610 611 612 613 614 615 616 617 618 619 0
c ret 620 621 622 623 624 625 626 627 628 629 0
c ret 630 631 632 633 634 635 636 637 638 639 0
c ret 640 641 642 643 644 645 646 647 648 649 0
c ret 650 651 652 653 654 655 656 657 658 659 0
c ret 660 661 662 663 664 665 666 667 668 669 0
c ret 670 671 672 673 674 675 676 677 678 679 0
c ret 680 681 682 683 684 685 686 687 688 689 0
c ret 690 691 692 693 694 695 696 697 698 699 0
c ret 285 291 292 293 294 295 296 700 297 701 0
c ret 298 299 300 702 301 703 302 303 304 305 0
c ret 306 307 308 309 310 311 312 313 314 704 0
c ret 315 705 316 706 317 707 318 319 320 321 0
c ret 322 323 324 325 326 327 286 708 328 329 0
c ret 330 331 332 709 710 333 334 711 335 712 0
c ret 336 337 338 339 340 341 342 713 343 344 0
c ret 345 346 347 348 714 349 715 350 351 352 0
c ret 353 716 717 354 355 356 357 358 359 360 0
c ret 361 362 363 364 365 366 367 368 718 287 0
c ret 369 719 370 720 721 371 372 373 374 375 0
c ret 376 377 378 379 380 381 722 382 383 384 0
c ret 385 386 387 723 388 724 389 390 725 726 0
c ret 391 392 393 394 395 396 397 398 727 728 0
c ret 399 400 401 729 402 403 404 405 406 407 0
c ret 408 288 409 410 411 412 413 414 415 416 0
c ret 730 417 418 419 731 420 732 421 422 733 0
c ret 734 423 424 425 426 427 428 429 430 431 0
c ret 432 433 434 435 436 437 438 439 440 441 0
c ret 442 443 444 445 446 447 448 449 450 451 0
c ret 452 453 454 455 456 457 458 459 460 461 0
c ret 462 463 464 465 466 467 468 469 470 471 0
c ret 472 473 474 475 476 477 478 479 289 480 0
c ret 481 482 483 484 485 486 487 488 489 490 0
c ret 491 492 493 494 495 496 497 498 499 500 0
c ret 501 502 503 504 505 506 507 508 509 510 0
c ret 511 512 513 514 515 516 517 518 290 519 0
c ret 520 521 522 523 524 525 526 527 528 529 0
c ret 530 531 532 533 534 535 536 537 538 539 0
c ret 540 541 542 543 544 545 546 547 548 549 0
c ret 550 551 552 553 554 555 556 557 558 559 0
c ret 560 561 562 563 564 565 566 567 568 569 0
c ret 570 571 572 573 574 575 576 577 578 579 0
c ret 580 581 582 583 584 585 586 587 588 589 0
2 152 -280 0
2 3 -280 0
2 191 -280 0
-2 280 0
-2 -3 -152 -191 0
3 4 -61 -104 0
3 -4 61 -104 0
-3 104 0
-3 4 61 0
-3 -4 -61 0
4 -5 -14 0
4 -5 -59 0
4 -5 -57 0
-4 5 0
-4 14 57 59 0
5 6 -12 0
-5 -6 0
-5 12 0
6 -7 -8 0
6 -8 -11 0
-6 8 0
-6 7 11 0
7 517 0
7 -518 -524 0
7 518 -525 0
-7 -517 518 525 0
-7 -517 -518 524 0
-7 8 -9 0
8 -9 -10 0
-8 9 0
7 -8 10 0
9 517 0
9 -518 524 0
9 518 525 0
-9 -517 518 -525 0
-9 -517 -518 -524 0
-7 10 0
10 526 -533 0
10 -526 -532 0
7 -10 -526 532 0
7 -10 526 533 0
-7 11 0
11 -526 532 0
11 526 533 0
7 -11 -526 -532 0
7 -11 526 -533 0
12 -13 -546 -575 -662 0
-12 13 0
-12 546 0
-12 662 0
-12 575 0
13 -604 -633 0
-13 604 0
-13 633 0
14 42 -43 0
14 -15 18 -43 0
-14 43 0
-14 -18 -42 0
-14 15 -42 0
15 16 17 0
-15 -16 0
-15 -17 0
16 439 440 441 0
-16 -439 0
-16 -441 0
-16 -440 0
17 447 -449 0
-17 -447 0
-17 449 0
18 -19 723 0
18 19 20 0
-18 -19 -723 0
-18 19 -20 0
19 426 -428 0
-19 -426 0
-19 428 0
20 -21 -722 0
-20 722 0
-20 21 0
21 22 -26 0
-21 -22 0
-21 26 0
22 -23 -317 0
22 -25 -317 0
22 -24 -317 0
-22 317 0
-22 23 24 25 0
23 -318 319 320 0
-23 318 0
-23 -320 0
-23 -319 0
24 323 326 327 0
-24 -323 0
-24 -327 0
-24 -326 0
25 -323 324 325 0
-25 323 0
-25 -325 0
-25 -324 0
26 27 -34 0
26 27 37 -350 0
-26 -27 0
-26 34 -37 0
-26 34 350 0
27 -28 31 0
27 31 371 0
-27 -31 0
-27 28 -371 0
28 -30 374 377 0
28 -29 -30 374 0
-28 -374 0
-28 30 0
-28 29 -377 0
29 375 -376 0
-29 -375 0
-29 376 0
30 372 373 0
-30 -372 0
-30 -373 0
29 -30 31 32 -33 0
30 -31 0
-31 -32 0
-29 -31 0
-31 33 0
32 383 384 0
32 383 391 392 0
-32 -383 0
-32 -384 -391 0
-32 -384 -392 0
33 -371 374 377 -378 0
-33 378 0
-33 -377 0
-33 371 0
-33 -374 0
34 35 -343 0
34 36 -343 -349 0
-34 343 0
-34 -35 349 0
-34 -35 -36 0
35 344 345 346 0
-35 -344 0
-35 -346 0
-35 -345 0
36 347 -348 0
-36 -347 0
-36 348 0
37 38 41 0
-37 -38 0
-37 -41 0
38 -39 -40 -363 0
38 -39 -40 -364 0
-38 40 0
-38 39 0
-38 363 364 0
-35 36 39 -343 -350 0
35 -39 0
-36 -39 0
-39 343 0
-39 350 0
40 349 355 -356 0
-40 356 0
-40 -355 0
-40 -349 0
-39 41 349 -355 0
39 -41 0
-41 355 0
-41 -349 0
17 42 -285 0
42 -285 724 0
-42 285 0
-17 -42 -724 0
43 -44 56 0
-43 44 0
-43 -56 0
44 45 48 0
-44 -45 0
-44 -48 0
45 -46 -47 -470 0
45 -46 -47 -471 0
-45 47 0
-45 46 0
-45 470 471 0
46 473 474 475 476 0
-46 -476 0
-46 -475 0
-46 -473 0
-46 -474 0
47 -467 -468 -469 472 0
-47 469 0
-47 -472 0
-47 467 0
-47 468 0
48 -49 -481 0
48 -50 -481 0
-48 481 0
-48 49 50 0
49 484 -486 0
-49 -484 0
-49 486 0
50 52 -55 488 0
50 -51 52 -488 0
-50 -52 0
-50 51 -488 0
-50 55 488 0
51 -489 490 0
-51 489 0
-51 -490 0
52 53 -54 0
-52 -53 0
-52 54 0
53 492 -493 -494 495 0
-53 -492 0
-53 -495 0
-53 494 0
-53 493 0
54 -481 -488 -489 490 0
-54 489 0
-54 -490 0
-54 481 0
-54 488 0
55 512 -514 0
-55 -512 0
-55 514 0
-18 56 285 -460 0
20 56 285 460 0
-56 -285 0
18 -56 -460 0
-20 -56 460 0
-55 57 -58 -726 0
-57 726 0
55 -57 0
-57 58 0
58 -481 488 0
-58 481 0
-58 -488 0
-49 59 -60 -725 0
-59 725 0
49 -59 0
-59 60 0
50 60 -481 0
-60 481 0
-50 -60 0
61 -62 -99 0
61 -99 931 0
-61 99 0
-61 62 -931 0
62 -63 64 0
62 -64 1002 0
62 64 66 0
-62 -64 -1002 0
-62 63 64 -66 0
63 -938 -939 940 0
-63 938 0
-63 939 0
-63 -940 0
64 -65 938 0
-64 -938 0
-64 65 0
65 962 -964 0
-65 -962 0
-65 964 0
66 -67 -1001 0
66 67 68 -71 0
-66 67 71 0
-66 -67 1001 0
-66 67 -68 0
67 934 -936 0
-67 -934 0
-67 936 0
68 -69 -70 -920 0
68 -69 -70 -921 0
-68 70 0
-68 69 0
-68 920 921 0
69 923 924 925 926 0
-69 -926 0
-69 -925 0
-69 -923 0
-69 -924 0
70 -917 -918 -919 922 0
-70 919 0
-70 -922 0
-70 917 0
-70 918 0
71 94 98 0
71 72 94 -95 0
-71 -94 0
-71 -72 -98 0
-71 95 -98 0
72 -73 999 0
72 73 74 0
-72 -73 -999 0
-72 73 -74 0
73 876 -878 0
-73 -876 0
-73 878 0
74 -75 -998 0
-74 998 0
-74 75 0
75 -76 90 0
-75 76 0
-75 -90 0
76 -83 84 0
76 77 84 -800 0
-76 -84 0
-76 -77 83 0
-76 83 800 0
77 78 0
77 81 -799 0
77 81 805 0
-77 -78 -81 0
-77 -78 799 -805 0
78 -79 80 -793 -800 0
-78 79 0
-78 -80 0
-78 793 0
-78 800 0
79 794 795 796 0
-79 -794 0
-79 -796 0
-79 -795 0
80 797 -798 0
-80 -797 0
-80 798 0
81 82 799 805 -806 0
-81 -799 0
-81 -82 0
-81 806 0
-81 -805 0
82 813 814 0
-82 -813 0
-82 -814 0
79 83 -793 0
80 83 -793 -799 0
-83 793 0
-79 -83 799 0
-79 -80 -83 0
84 86 89 0
84 86 -88 0
84 85 86 0
-84 -86 0
-84 -85 88 -89 0
85 822 823 824 0
-85 -822 0
-85 -824 0
-85 -823 0
85 86 -821 0
86 87 -821 -827 0
-86 821 0
-85 -86 827 0
-85 -86 -87 0
87 825 -826 0
-87 -825 0
-87 826 0
88 833 834 0
88 833 841 842 0
-88 -833 0
-88 -834 -841 0
-88 -834 -842 0
87 89 -821 827 -828 0
-89 828 0
-87 -89 0
-89 821 0
-89 -827 0
90 -91 -767 0
90 -93 -767 0
90 -92 -767 0
-90 767 0
-90 91 92 93 0
91 -768 769 770 0
-91 768 0
-91 -770 0
-91 -769 0
92 773 776 777 0
-92 -773 0
-92 -777 0
-92 -776 0
93 -773 774 775 0
-93 773 0
-93 -775 0
-93 -774 0
-72 94 735 -910 0
74 94 735 910 0
-94 -735 0
72 -94 -910 0
-74 -94 910 0
95 96 97 0
-95 -96 0
-95 -97 0
96 897 -899 0
-96 -897 0
-96 899 0
97 889 890 891 0
-97 -889 0
-97 -891 0
-97 -890 0
96 98 -735 0
98 -735 1000 0
-98 735 0
-96 -98 -1000 0
66 99 100 0
71 99 101 0
99 100 101 0
66 71 99 0
-71 -99 -100 0
-66 -99 -101 0
68 100 931 0
-100 -931 0
-68 -100 0
101 102 -103 0
-101 -102 0
-101 103 0
102 942 -943 -944 945 0
-102 -942 0
-102 -945 0
-102 944 0
-102 943 0
103 -931 -938 -939 940 0
-103 939 0
-103 -940 0
-103 931 0
-103 938 0
104 -105 118 -128 139 0
104 105 -118 128 -139 0
104 -105 118 128 -139 0
104 105 -118 -128 139 0
-104 -105 -118 0
-104 105 118 0
-104 128 139 0
-104 -128 -139 0
105 -108 -114 0
105 106 -114 -481 0
-105 114 0
-105 -106 108 0
-105 108 481 0
49 106 107 0
-49 -106 0
-106 -107 0
-55 107 488 -721 0
55 -107 0
-107 721 0
-107 -488 0
45 108 109 113 0
45 108 109 -112 0
-45 -108 0
-108 -109 0
-108 112 -113 0
109 -111 285 -460 0
109 110 285 460 0
-109 -285 0
-109 111 -460 0
-109 -110 460 0
-21 110 -289 0
-110 289 0
21 -110 0
-19 111 718 0
19 110 111 0
-19 -111 -718 0
19 -110 -111 0
-15 111 112 0
15 -112 0
-111 -112 0
17 113 -285 0
113 -285 719 0
-113 285 0
-17 -113 -719 0
6 114 115 -116 -117 0
-6 -114 0
-114 117 0
-114 116 0
-114 -115 0
-48 -50 107 115 0
-48 107 115 720 0
48 -115 0
-107 -115 0
50 -115 -720 0
116 -546 -575 -604 0
-116 546 0
-116 575 0
-116 604 0
117 -633 -662 0
-117 633 0
-117 662 0
118 119 127 931 0
118 -125 127 -931 0
-118 -127 0
-118 -119 931 0
-118 125 -931 0
68 119 120 124 0
68 119 120 -123 0
-68 -119 0
-119 -120 0
-119 123 -124 0
120 -122 735 -910 0
120 121 735 910 0
-120 -735 0
-120 122 -910 0
-120 -121 910 0
-75 121 -739 0
-121 739 0
75 -121 0
-73 122 994 0
73 121 122 0
-73 -122 -994 0
73 -121 -122 0
-95 122 123 0
95 -123 0
-122 -123 0
96 124 -735 0
124 -735 995 0
-124 735 0
-96 -124 -995 0
-63 64 125 0
-64 125 997 0
64 125 126 0
-64 -125 -997 0
63 64 -125 -126 0
-67 126 -996 0
67 -119 126 0
-67 -126 996 0
67 119 -126 0
-101 -126 127 0
101 -127 0
126 -127 0
-5 128 -129 0
-5 128 137 0
5 -128 0
-128 129 -137 0
55 -58 129 -130 0
-55 -58 129 -734 0
58 -129 0
55 -129 130 0
-55 -129 734 0
-49 130 -733 0
49 130 -131 0
-49 -130 733 0
49 -130 131 0
45 131 132 136 0
45 131 132 -135 0
-45 -131 0
-131 -132 0
-131 135 -136 0
132 -134 285 -460 0
132 133 285 460 0
-132 -285 0
-132 134 -460 0
-132 -133 460 0
-21 133 -730 0
-133 730 0
21 -133 0
-19 134 731 0
19 133 134 0
-19 -134 -731 0
19 -133 -134 0
-15 134 135 0
15 -135 0
-134 -135 0
17 136 -285 0
136 -285 732 0
-136 285 0
-17 -136 -732 0
137 -138 -481 0
130 131 137 0
130 137 -481 0
131 137 -138 0
-131 -137 481 0
-130 -137 138 0
52 138 488 0
-51 52 138 0
52 138 481 0
-52 -138 0
51 -138 -481 -488 0
139 146 149 -931 0
139 140 146 149 0
-139 -149 0
-139 -146 0
-139 -140 931 0
68 140 141 145 0
68 140 141 -144 0
-68 -140 0
-140 -141 0
-140 144 -145 0
141 -143 735 -910 0
141 142 735 910 0
-141 -735 0
-141 143 -910 0
-141 -142 910 0
-75 142 -1006 0
-142 1006 0
75 -142 0
-73 143 1007 0
73 142 143 0
-73 -143 -1007 0
73 -142 -143 0
-95 143 144 0
95 -144 0
-143 -144 0
96 145 -735 0
145 -735 1008 0
-145 735 0
-96 -145 -1008 0
-65 146 -148 -1010 0
65 146 -147 -148 0
-146 148 0
-65 -146 1010 0
65 -146 147 0
-67 147 -1009 0
67 -140 147 0
-67 -147 1009 0
67 140 -147 0
148 -931 938 0
-148 931 0
-148 -938 0
-147 149 150 0
147 -149 0
-149 -150 0
101 150 938 0
101 150 -151 0
101 150 931 0
-101 -150 0
-150 151 -931 -938 0
151 -939 940 0
-151 939 0
-151 -940 0
152 153 -163 -182 0
152 -153 163 -173 0
152 153 -163 -173 0
152 -153 163 -182 0
-152 -153 -163 0
-152 153 163 0
-152 173 182 0
-5 153 -154 0
-5 153 162 0
5 -153 0
-153 154 -162 0
55 -58 154 -155 0
-55 -58 154 -712 0
58 -154 0
55 -154 155 0
-55 -154 712 0
-49 155 -711 0
49 155 -156 0
-49 -155 711 0
49 -155 156 0
45 156 157 161 0
45 156 157 -160 0
-45 -156 0
-156 -157 0
-156 160 -161 0
157 -159 285 -460 0
157 158 285 460 0
-157 -285 0
-157 159 -460 0
-157 -158 460 0
-21 158 -708 0
-158 708 0
21 -158 0
-19 159 709 0
19 158 159 0
-19 -159 -709 0
19 -158 -159 0
-15 159 160 0
15 -160 0
-159 -160 0
17 161 -285 0
161 -285 710 0
-161 285 0
-17 -161 -710 0
-138 156 162 0
155 162 -481 0
-138 162 -481 0
155 156 162 0
138 -155 -162 0
-156 -162 481 0
163 170 172 -931 0
163 164 170 172 0
-163 -172 0
-163 -170 0
-163 -164 931 0
68 164 165 169 0
68 164 165 -168 0
-68 -164 0
-164 -165 0
-164 168 -169 0
165 -167 735 -910 0
165 166 735 910 0
-165 -735 0
-165 167 -910 0
-165 -166 910 0
-75 166 -984 0
-166 984 0
75 -166 0
-73 167 985 0
73 166 167 0
-73 -167 -985 0
73 -166 -167 0
-95 167 168 0
95 -168 0
-167 -168 0
96 169 -735 0
169 -735 986 0
-169 735 0
-96 -169 -986 0
65 -148 170 -171 0
-65 -148 170 -988 0
148 -170 0
65 -170 171 0
-65 -170 988 0
-67 171 -987 0
67 -164 171 0
-67 -171 987 0
67 164 -171 0
150 -171 172 0
-150 -172 0
171 -172 0
-5 173 -174 0
-5 173 -181 0
-5 173 -180 0
5 -173 0
-173 174 180 181 0
174 177 -178 0
-15 174 175 -178 0
-174 178 0
-174 -175 -177 0
15 -174 -177 0
-19 175 714 0
19 175 176 0
-19 -175 -714 0
19 -175 -176 0
-21 176 -713 0
-176 713 0
21 -176 0
17 177 -285 0
177 -285 715 0
-177 285 0
-17 -177 -715 0
-44 178 179 0
44 -178 0
-178 -179 0
-175 179 285 -460 0
176 179 285 460 0
-179 -285 0
175 -179 -460 0
-176 -179 460 0
-55 -58 180 -717 0
-180 717 0
55 -180 0
58 -180 0
-49 -60 181 -716 0
-181 716 0
49 -181 0
60 -181 0
182 -183 -190 0
182 -190 931 0
-182 190 0
-182 183 -931 0
-63 64 183 0
-64 183 993 0
64 183 184 0
-64 -183 -993 0
63 64 -183 -184 0
-67 184 -992 0
67 68 184 -185 0
67 -184 185 0
-67 -184 992 0
67 -68 -184 0
185 188 189 0
-95 185 186 189 0
-185 -189 0
-185 -186 -188 0
95 -185 -188 0
-73 186 990 0
73 186 187 0
-73 -186 -990 0
73 -186 -187 0
-75 187 -989 0
-187 989 0
75 -187 0
96 188 -735 0
188 -735 991 0
-188 735 0
-96 -188 -991 0
-186 189 735 -910 0
187 189 735 910 0
-189 -735 0
186 -189 -910 0
-187 -189 910 0
101 185 190 0
100 184 190 0
184 185 190 0
100 101 190 0
-100 -185 -190 0
-101 -184 -190 0
173 191 -192 -231 0
182 191 -192 -231 0
-191 231 0
-191 192 0
-173 -182 -191 0
192 193 213 -222 0
192 203 -213 222 0
192 203 213 -222 0
192 193 -213 222 0
-192 213 222 0
-192 -213 -222 0
-192 -193 -203 0
-5 193 -194 0
-5 193 202 0
5 -193 0
-193 194 -202 0
55 -58 194 -195 0
-55 -58 194 -703 0
58 -194 0
55 -194 195 0
-55 -194 703 0
-49 195 -702 0
49 195 -196 0
-49 -195 702 0
49 -195 196 0
45 196 197 201 0
45 196 197 -200 0
-45 -196 0
-196 -197 0
-196 200 -201 0
197 198 -285 701 0
17 197 198 -285 0
-197 285 0
-197 -198 0
-17 -197 -701 0
-15 198 199 0
15 -198 0
-198 -199 0
19 21 199 0
-19 199 700 0
19 199 290 0
-19 -199 -700 0
19 -21 -199 -290 0
19 -21 200 -290 0
-21 200 -290 460 0
21 -200 0
-200 290 0
-19 -200 -460 0
201 285 700 0
201 285 460 0
19 201 285 0
-201 -285 0
-19 -201 -460 -700 0
-138 196 202 0
195 202 -481 0
-138 202 -481 0
195 196 202 0
138 -195 -202 0
-196 -202 481 0
203 210 212 -931 0
203 204 210 212 0
-203 -212 0
-203 -210 0
-203 -204 931 0
68 204 205 209 0
68 204 205 -208 0
-68 -204 0
-204 -205 0
-204 208 -209 0
205 206 -735 977 0
96 205 206 -735 0
-205 735 0
-205 -206 0
-96 -205 -977 0
-95 206 207 0
95 -206 0
-206 -207 0
73 75 207 0
-73 207 976 0
73 207 740 0
-73 -207 -976 0
73 -75 -207 -740 0
73 -75 208 -740 0
-75 208 -740 910 0
75 -208 0
-208 740 0
-73 -208 -910 0
209 735 976 0
209 735 910 0
73 209 735 0
-209 -735 0
-73 -209 -910 -976 0
65 -148 210 -211 0
-65 -148 210 -979 0
148 -210 0
65 -210 211 0
-65 -210 979 0
-67 211 -978 0
67 -204 211 0
-67 -211 978 0
67 204 -211 0
150 -211 212 0
-150 -212 0
211 -212 0
-5 213 -214 0
-5 213 221 0
5 -213 0
-213 214 -221 0
55 -58 214 -215 0
-55 -58 214 -707 0
58 -214 0
55 -214 215 0
-55 -214 707 0
-49 215 -706 0
49 215 -216 0
-49 -215 706 0
49 -215 216 0
45 216 217 220 0
45 216 217 -219 0
-45 -216 0
-216 -217 0
-216 219 -220 0
217 -218 285 -460 0
21 217 285 460 0
-217 -285 0
-217 218 -460 0
-21 -217 460 0
-19 218 704 0
19 21 218 0
-19 -218 -704 0
19 -21 -218 0
-15 218 219 0
15 -219 0
-218 -219 0
17 220 -285 0
220 -285 705 0
-220 285 0
-17 -220 -705 0
-138 216 221 0
215 221 -481 0
-138 221 -481 0
215 216 221 0
138 -215 -221 0
-216 -221 481 0
222 228 230 -931 0
222 223 228 230 0
-222 -230 0
-222 -228 0
-222 -223 931 0
68 223 224 227 0
68 223 224 -226 0
-68 -223 0
-223 -224 0
-223 226 -227 0
224 -225 735 -910 0
75 224 735 910 0
-224 -735 0
-224 225 -910 0
-75 -224 910 0
-73 225 980 0
73 75 225 0
-73 -225 -980 0
73 -75 -225 0
-95 225 226 0
95 -226 0
-225 -226 0
96 227 -735 0
227 -735 981 0
-227 735 0
-96 -227 -981 0
65 -148 228 -229 0
-65 -148 228 -983 0
148 -228 0
65 -228 229 0
-65 -228 983 0
-67 229 -982 0
67 -223 229 0
-67 -229 982 0
67 223 -229 0
150 -229 230 0
-150 -230 0
229 -230 0
231 232 -233 -264 -271 0
231 232 -233 264 271 0
-231 -232 0
-231 264 -271 0
-231 233 0
-231 -264 271 0
193 203 232 0
-193 -232 0
-203 -232 0
233 234 256 257 -260 0
233 234 -256 -257 -260 0
-233 260 0
-233 -256 257 0
-233 -234 0
-233 256 -257 0
234 235 -244 0
234 -235 244 0
-234 -235 -244 0
-234 235 244 0
235 236 -243 735 0
235 236 -242 -243 0
-235 243 0
-235 -236 0
-235 242 -735 0
236 237 241 0
236 239 241 0
236 237 -239 735 0
-236 -237 -239 0
-236 239 -241 0
-236 -241 -735 0
-76 237 -967 0
-76 90 237 238 0
76 -237 0
-237 -238 967 0
-90 -237 967 0
238 746 1004 0
-238 -746 0
-238 -1004 0
239 -240 910 911 914 0
-239 240 0
-239 -914 0
-239 -910 0
-239 -911 0
240 912 913 0
-240 -912 0
-240 -913 0
241 854 -1005 0
-237 241 -854 0
237 -241 -854 0
-241 854 1005 0
97 -241 242 0
-97 -242 0
241 -242 0
68 103 243 0
68 102 243 0
-68 -243 0
-102 -103 -243 0
244 245 -251 -255 0
244 245 -251 285 0
-244 251 0
-244 -245 0
-244 255 -285 0
245 246 250 0
245 248 250 0
245 246 -248 285 0
-245 -246 -248 0
-245 248 -250 0
-245 -250 -285 0
-26 246 -691 0
22 -26 246 247 0
26 -246 0
-246 -247 691 0
-22 -246 691 0
247 296 728 0
-247 -296 0
-247 -728 0
248 -249 460 461 0
-248 249 0
-248 -461 0
-248 -460 0
249 462 463 464 0
-249 -462 0
-249 -464 0
-249 -463 0
250 404 -729 0
-246 250 -404 0
246 -250 -404 0
-250 404 729 0
251 -252 -633 -662 0
-251 633 0
-251 662 0
-251 252 0
8 252 -253 0
11 252 -253 -517 0
-252 253 0
-8 -11 -252 0
-8 -252 517 0
253 -254 -546 -575 -604 0
-253 254 0
-253 546 0
-253 604 0
-253 575 0
45 54 254 0
45 53 254 0
-45 -254 0
-53 -54 -254 0
16 -250 255 0
-16 -255 0
250 -255 0
-76 256 -967 969 0
-256 967 0
-256 -969 0
76 -256 0
-26 -252 257 258 -259 0
-257 259 0
26 -257 0
252 -257 0
-257 -258 0
-16 258 -285 0
-258 285 0
16 -258 0
259 -633 -662 -691 693 0
-259 691 0
-259 -693 0
-259 633 0
-259 662 0
90 -243 260 -261 -263 0
-90 -260 0
-260 263 0
-260 261 0
243 -260 0
97 261 -262 0
261 -262 735 0
-261 262 0
-97 -261 -735 0
262 -738 -739 0
262 -737 740 0
262 -737 -739 0
262 -738 740 0
-262 739 -740 0
-262 737 738 0
-83 84 263 0
77 84 263 0
-84 -263 0
-77 83 -263 0
-243 264 265 0
243 -264 0
-264 -265 0
239 265 -266 0
265 269 270 0
265 -266 269 0
-265 266 -270 0
-239 -265 -269 0
-265 266 -269 0
266 267 -854 0
-256 266 854 975 0
-266 854 -975 0
-266 -267 -854 0
256 -266 854 0
-76 267 -268 0
76 -267 0
-267 268 0
268 -967 -969 0
90 268 967 0
268 -967 -973 0
-90 -268 967 0
-268 -967 969 973 0
239 269 735 0
-267 269 735 0
-269 -735 0
-239 267 -269 0
97 270 -735 0
-270 735 0
-97 -270 0
271 -276 285 0
16 271 272 -276 0
-271 276 0
-271 -272 -285 0
-16 -271 -285 0
272 273 -404 0
-26 272 -275 404 0
-272 -273 -404 0
26 -272 404 0
-272 275 404 0
-26 273 -274 0
26 -273 0
-273 274 0
274 -691 -693 0
22 274 691 0
274 -691 -697 0
-22 -274 691 0
-274 -691 693 697 0
275 -691 693 699 0
-275 691 0
-275 -699 0
-275 -693 0
-251 276 -277 278 0
-251 272 276 278 0
251 -276 0
-276 -278 0
-272 -276 277 0
277 460 461 0
-277 -460 0
-277 -461 0
273 278 -279 0
249 -272 278 0
249 278 -279 0
-272 273 278 0
272 -278 279 0
-249 -273 -278 0
-248 279 285 0
-279 -285 0
248 -279 0
10 280 -281 0
9 280 -281 0
11 280 -281 0
-280 281 0
-9 -10 -11 -280 0
22 27 281 282 -283 0
-281 283 0
-281 -282 0
-22 -281 0
-27 -281 0
34 38 41 282 0
-34 -282 0
-41 -282 0
-38 -282 0
-12 -254 258 283 -284 0
-283 284 0
12 -283 0
254 -283 0
-258 -283 0
284 -288 -289 0
284 -287 290 0
284 -287 -289 0
284 -288 290 0
-284 289 -290 0
-284 287 288 0
1 2 0
-1 -2 0
1011 0

